c description: Tseitin formula on , with even charge
c generator: CNFgen (0.9.0)
c copyright: (C) 2012-2020 Massimo Lauria <massimo.lauria@uniroma1.it>
c url: https://massimolauria.net/cnfgen
c
p cnf 20 110
1 -2 0
-1 2 0
1 3 4 5 -6 0
1 3 4 -5 6 0
1 3 -4 5 6 0
1 3 -4 -5 -6 0
1 -3 4 5 6 0
1 -3 4 -5 -6 0
1 -3 -4 5 -6 0
1 -3 -4 -5 6 0
-1 3 4 5 6 0
-1 3 4 -5 -6 0
-1 3 -4 5 -6 0
-1 3 -4 -5 6 0
-1 -3 4 5 -6 0
-1 -3 4 -5 6 0
-1 -3 -4 5 6 0
-1 -3 -4 -5 -6 0
3 7 8 -9 0
3 7 -8 9 0
3 -7 8 9 0
3 -7 -8 -9 0
-3 7 8 9 0
-3 7 -8 -9 0
-3 -7 8 -9 0
-3 -7 -8 9 0
10 11 -12 0
10 -11 12 0
-10 11 12 0
-10 -11 -12 0
4 10 13 14 -15 0
4 10 13 -14 15 0
4 10 -13 14 15 0
4 10 -13 -14 -15 0
4 -10 13 14 15 0
4 -10 13 -14 -15 0
4 -10 -13 14 -15 0
4 -10 -13 -14 15 0
-4 10 13 14 15 0
-4 10 13 -14 -15 0
-4 10 -13 14 -15 0
-4 10 -13 -14 15 0
-4 -10 13 14 -15 0
-4 -10 13 -14 15 0
-4 -10 -13 14 15 0
-4 -10 -13 -14 -15 0
7 16 -17 0
7 -16 17 0
-7 16 17 0
-7 -16 -17 0
5 8 11 -13 0
5 8 -11 13 0
5 -8 11 13 0
5 -8 -11 -13 0
-5 8 11 13 0
-5 8 -11 -13 0
-5 -8 11 -13 0
-5 -8 -11 13 0
6 14 16 18 -19 0
6 14 16 -18 19 0
6 14 -16 18 19 0
6 14 -16 -18 -19 0
6 -14 16 18 19 0
6 -14 16 -18 -19 0
6 -14 -16 18 -19 0
6 -14 -16 -18 19 0
-6 14 16 18 19 0
-6 14 16 -18 -19 0
-6 14 -16 18 -19 0
-6 14 -16 -18 19 0
-6 -14 16 18 -19 0
-6 -14 16 -18 19 0
-6 -14 -16 18 19 0
-6 -14 -16 -18 -19 0
9 12 15 17 18 -20 0
9 12 15 17 -18 20 0
9 12 15 -17 18 20 0
9 12 15 -17 -18 -20 0
9 12 -15 17 18 20 0
9 12 -15 17 -18 -20 0
9 12 -15 -17 18 -20 0
9 12 -15 -17 -18 20 0
9 -12 15 17 18 20 0
9 -12 15 17 -18 -20 0
9 -12 15 -17 18 -20 0
9 -12 15 -17 -18 20 0
9 -12 -15 17 18 -20 0
9 -12 -15 17 -18 20 0
9 -12 -15 -17 18 20 0
9 -12 -15 -17 -18 -20 0
-9 12 15 17 18 20 0
-9 12 15 17 -18 -20 0
-9 12 15 -17 18 -20 0
-9 12 15 -17 -18 20 0
-9 12 -15 17 18 -20 0
-9 12 -15 17 -18 20 0
-9 12 -15 -17 18 20 0
-9 12 -15 -17 -18 -20 0
-9 -12 15 17 18 -20 0
-9 -12 15 17 -18 20 0
-9 -12 15 -17 18 20 0
-9 -12 15 -17 -18 -20 0
-9 -12 -15 17 18 20 0
-9 -12 -15 17 -18 -20 0
-9 -12 -15 -17 18 -20 0
-9 -12 -15 -17 -18 20 0
2 19 -20 0
2 -19 20 0
-2 19 20 0
-2 -19 -20 0